217 379 11
1 1 2 
1 3 4 
1 5 4 
1 6 7 8 
1 9 10 
1 11 12 
1 13 4 
1 14 12 
1 15 12 
1 16 17 18 19 20 21 
1 22 23 
1 24 25 22 26 27 28 
1 25 29 30 28 
1 31 32 
1 33 34 
1 32 35 
1 36 37 27 38 24 
1 39 40 41 
1 21 42 17 43 44 12 45 46 47 48 49 
1 50 40 
1 37 17 51 40 52 53 54 28 55 
1 56 19 57 58 59 25 60 61 24 
1 62 63 25 33 
1 64 10 44 40 65 
1 38 66 40 67 68 
1 69 4 
1 70 17 
1 71 72 
1 73 74 
1 27 75 43 76 77 78 79 80 12 81 82 26 35 83 
1 84 54 
1 85 86 10 9 87 
1 88 89 90 
1 91 4 
1 92 93 
1 94 95 
1 96 4 
1 97 4 
1 98 79 
1 12 78 79 
1 79 82 
1 99 80 
1 100 80 
1 78 82 
1 101 102 
1 103 102 
1 104 105 
1 106 107 
1 108 40 
1 109 110 
1 111 112 
1 113 7 114 115 
1 116 89 
1 117 118 
1 119 54 
1 120 42 
1 121 122 123 
1 124 107 
1 125 126 
1 127 4 
1 128 4 
1 129 90 
1 130 4 
1 131 132 
1 30 29 
1 133 4 
1 134 4 
1 135 136 
1 137 138 
1 139 74 
1 140 107 
1 141 142 54 115 49 72 
1 143 44 
1 144 12 
1 145 79 
1 146 10 
1 147 40 
1 148 149 4 150 
1 151 142 
1 152 4 
1 153 86 
1 154 149 
1 155 4 
1 156 154 149 
1 157 4 
1 158 74 
1 159 74 160 
1 161 162 4 
1 163 164 138 
1 165 166 167 
1 87 9 
1 168 40 
1 169 10 
1 170 40 
1 8 4 109 
1 167 12 
1 171 84 54 
1 172 72 
1 173 174 
1 175 82 
1 176 177 
1 178 4 
1 179 49 
1 180 4 
1 181 4 95 110 
1 49 4 95 110 
1 44 40 
1 182 183 
1 184 4 110 
1 185 186 187 
1 188 4 
1 189 7 
1 190 90 
1 191 10 
1 192 4 
1 193 82 4 
1 194 147 
1 195 196 
1 197 126 
1 198 10 
1 199 200 
1 201 72 
1 202 203 
1 204 12 
1 205 206 
1 207 4 
1 208 142 209 210 17 211 10 40 212 54 213 147 80 12 184 214 93 49 
1 215 45 
1 216 209 82 
1 217 72 
1 86 218 
1 219 12 
1 220 4 
1 221 162 
1 222 223 
1 224 147 
1 225 147 
1 226 147 179 227 228 
1 229 230 
1 231 10 9 193 78 79 232 233 155 4 117 234 
1 235 236 237 238 10 43 66 40 63 239 240 241 242 57 58 59 243 37 244 21 39 245 246 25 247 22 60 248 249 250 251 252 16 253 254 255 256 257 258 147 82 27 259 31 33 32 260 261 67 68 262 263 264 265 38 266 267 268 269 270 271 272 273 
1 274 37 27 38 272 275 36 
1 276 21 250 263 277 267 268 278 279 280 281 282 283 272 
1 284 72 262 
1 285 286 
1 287 288 
1 289 2 
1 290 155 4 24 
1 291 25 
1 292 187 
1 293 294 
1 295 296 
1 297 74 
1 298 85 
1 299 300 2 
1 301 212 
1 302 250 
1 303 212 
1 304 222 
1 305 27 
1 306 26 
1 307 48 
1 308 49 
1 309 185 
1 310 2 
1 311 2 
1 312 209 
1 313 314 
1 315 316 317 318 319 320 78 79 81 82 321 
1 322 79 
1 323 226 
1 324 325 
1 326 10 78 79 327 
1 328 43 26 34 28 
1 329 43 26 34 330 28 41 331 
1 332 333 334 142 210 10 335 336 43 337 338 47 4 327 339 340 
1 341 142 
1 342 335 
1 343 49 
1 344 345 346 
1 347 348 
1 349 147 
1 270 350 351 
1 256 17 21 
1 257 256 
1 277 21 
1 253 17 19 352 20 16 
1 252 353 4 
1 250 354 21 
1 251 355 
1 249 212 21 54 
1 247 17 40 20 28 
1 260 31 
1 268 17 
1 279 21 
1 245 51 
1 258 54 
1 356 17 21 262 
1 254 21 
1 244 21 
1 357 358 
1 359 21 
1 242 209 
1 281 236 360 21 147 38 
1 240 21 
1 246 17 40 21 28 
1 239 17 40 21 
1 318 209 
1 228 227 
1 361 362 296 74 222 363 364 100 12 149 
1 365 155 
1 366 367 
1 48 368 369 47 370 371 372 373 374 97 149 4 294 150 94 375 376 377 
1 378 371 375 
1 47 149 4 150 110 
1 379 82 377 
1 213 10 212 
1
1
1
1
1
1
1
1
1
1
1
1
1
1
1
1
1
1
1
1
1
1
1
1
1
1
1
1
1
1
1
1
1
1
1
1
1
1
1
1
1
1
1
1
1
1
1
1
1
1
1
1
1
1
1
1
1
1
1
1
1
1
1
1
1
1
1
1
1
1
1
1
1
1
1
1
1
1
1
1
1
1
1
1
1
1
1
1
1
1
1
1
1
1
1
1
1
1
1
1
1
1
1
1
1
1
1
1
1
1
1
1
1
1
1
1
1
1
1
1
1
1
1
1
1
1
1
1
1
1
1
1
1
1
1
1
1
1
1
1
1
1
1
1
1
1
1
1
1
1
1
1
1
1
1
1
1
1
1
1
1
1
1
1
1
1
1
1
1
1
1
1
1
1
1
1
1
1
1
1
1
1
1
1
1
1
1
1
1
1
1
1
1
1
1
1
1
1
1
1
1
1
1
1
1
1
1
1
1
1
1
1
1
1
1
1
1
1
1
1
1
1
1
1
1
1
1
1
1
1
1
1
1
1
1
1
1
1
1
1
1
1
1
1
1
1
1
1
1
1
1
1
1
1
1
1
1
1
1
1
1
1
1
1
1
1
1
1
1
1
1
1
1
1
1
1
1
1
1
1
1
1
1
1
1
1
1
1
1
1
1
1
1
1
1
1
1
1
1
1
1
1
1
1
1
1
1
1
1
1
1
1
1
1
1
1
1
1
1
1
1
1
1
1
1
1
1
1
1
1
1
1
1
1
1
1
1
1
1
1
1
1
1
1
1
1
1
1
1
1
1
1
1
1
1
1
1
1
1
1
1
1
1
1
1
1
1
1
1
1
1
1
1
1
1
1
1
1
1
